ClassProblems/AMPL/IMM-cement-production-and-shipment-b.dat
data;
set nodes := N1  N2 N3  N4 N5 N6 N7 N9 N8 N10 ;
param entr := N1 ;
param exit := N10 ;
param:     links:	l   :=
	N1 		N2   	5
	N1 		N3		2
	N1 		N4		1
	N1 		N5		4
	N2 		N6		2
	N2 		N7		1
	N3 		N2		2
	N3 		N7		4
	N4 		N3		2
	N4 		N7		6
	N4 		N5		2
	N5 		N9		12
	N6 		N8		1
	N7 		N8		4
	N7 		N9		8
	N7 		N10		7
	N9 		N10 	4
	N8		N10		6;	
