ClassProblems/AMPL/IMM-cement-production-and-shipment-b.txt
for {1..1} {
solve;
display Use;
}

	

	
